NAME : tsp_394_sol.txt
COMMENT : OR-Tools Guided Local Search
TYPE : TOUR
DIMENSION : 50
COST : 5191
STATUS : ROUTING_SUCCESS
GAP : 0.00% (Reference Solution)
TOUR_SECTION
1
17
43
20
4
50
32
26
44
25
28
37
23
18
10
34
13
35
5
45
38
36
29
8
15
3
22
7
2
48
24
16
40
11
31
9
14
19
12
49
30
33
46
42
21
6
47
41
27
39
-1
